TCS_Benchmarks/redos_fix/corpus1_output_distinct_3456_3455_24_0.txt
(.*)([:0-9]+)
(.*)(Video: .+PAR ([0-9]+):([0-9]+) DAR )([:0-9]+)